3 3 2
25 1 59 0 55 1 95 2 18 0 94 1 27 0 23 1 31 0 68 2 34 1 4 0 20 2 88 1 4 0 51 2 78 0 23 2 1 0 15 2 95 0 11 1 25 0 53 2 39 1 70 
25 0 4 1 40 2 24 0 32 1 22 0 94 2 92 0 68 2 83 1 34 0 66 2 39 0 46 1 8 2 15 1 59 2 8 0 81 1 31 2 9 1 14 0 86 1 29 0 84 2 2 
25 1 4 0 51 1 33 2 90 0 69 1 46 2 42 0 76 2 7 0 47 1 33 2 29 1 17 2 80 1 5 0 89 2 61 0 40 1 35 2 55 0 64 1 51 0 7 1 23 2 66 

-------------
